src/solve_python.lp
maximize 
 v : f01 + f02
subject to 
c1 : f01 <= 10 
c2 : f02 <= 10 
c3 : f12 <= 3 
c4 : f13 <= 10 
c5 : f23 <= 10 
c6 : - f01 + f12 + f13 = 0 
c7 : - f02 - f12 + f23 = 0 

integer 
f01 
f02 

end
