src/solve_python.sol
Problem:    
Rows:       7
Columns:    5 (2 integer, 0 binary)
Non-zeros:  11
Status:     INTEGER OPTIMAL
Objective:  v = 20 (MAXimum)

   No.   Row name        Activity     Lower bound   Upper bound
------ ------------    ------------- ------------- -------------
     1 c1                         10                          10 
     2 c2                         10                          10 
     3 c3                          0                           3 
     4 c4                         10                          10 
     5 c5                         10                          10 
     6 c6                          0             0             = 
     7 c7                          0             0             = 

   No. Column name       Activity     Lower bound   Upper bound
------ ------------    ------------- ------------- -------------
     1 f01          *             10             0               
     2 f02          *             10             0               
     3 f12                         0             0               
     4 f13                        10             0               
     5 f23                        10             0               

Integer feasibility conditions:

KKT.PE: max.abs.err = 0.00e+00 on row 0
        max.rel.err = 0.00e+00 on row 0
        High quality

KKT.PB: max.abs.err = 0.00e+00 on row 0
        max.rel.err = 0.00e+00 on row 0
        High quality

End of output
